p tw 113 130
1 2
2 26
3 14
3 18
4 5
5 6
6 7
7 8
7 108
8 16
9 10
10 16
11 12
12 13
13 15
14 18
15 16
16 17
18 19
19 20
20 21
21 22
22 23
23 24
24 25
24 11
25 27
26 37
27 28
27 99
28 29
29 30
29 87
30 31
31 32
31 80
32 33
33 34
34 35
35 36
36 38
37 48
38 39
39 40
40 41
40 78
41 42
42 43
42 54
43 44
43 50
44 45
45 46
46 47
47 49
48 59
49 52
50 51
51 52
52 53
53 16
54 55
55 56
56 57
57 58
57 69
58 60
59 70
60 61
60 34
61 62
62 63
63 64
64 65
65 66
66 67
66 34
67 68
68 34
69 71
70 81
71 72
72 73
73 74
74 75
75 76
75 34
76 77
77 34
78 79
79 16
80 82
81 92
81 18
82 83
83 84
84 85
85 86
85 87
86 16
87 88
88 89
88 95
89 90
90 91
91 93
92 103
93 94
94 97
95 96
96 97
97 98
98 16
99 100
100 101
101 102
102 104
102 105
103 3
104 16
105 106
106 107
107 108
108 109
109 110
110 111
110 9
111 112
112 113
113 4
